; benchmark generated from python API
(set-info :status unknown)
(declare-datatypes ((RealState 0)) (((RMk1 (rval1 Real)) (RMk2 (rval2 Real)))))
 (assert
 (forall ((|v11:0| Real) )(exists ((|v10:1_st| RealState) (val!3138 Real) )(forall ((|v9:2| Real) )(exists ((|v8:3_st| RealState) (val!3139 Real) )(forall ((|v7:4| Real) )(exists ((|v6:5_st| RealState) (val!3140 Real) )(forall ((|v5:6| Real) )(exists ((|v4:7_st| RealState) (val!3141 Real) )(forall ((|v3:8| Real) )(exists ((|v2:9_st| RealState) (val!3142 Real) )(forall ((|v1:10| Real) )(exists ((|v0:11_st| RealState) (val!3143 Real) )(let ((?x2792 (- 6.0)))
 (let ((?x608 (rval2 |v0:11_st|)))
 (let ((?x721 (- 5.0)))
 (let ((?x420 (* ?x721 ?x608)))
 (let ((?x1908 (- 9.0)))
 (let ((?x1562 (* 2.0 |v1:10|)))
 (let ((?x2803 (rval2 |v8:3_st|)))
 (let ((?x617 (* 11.0 ?x2803)))
 (let ((?x3004 (+ (+ (+ (* (- 8.0) (rval2 |v4:7_st|)) (* (- 4.0) |v7:4|)) ?x617) ?x1562)))
 (let (($x627 (and (<= ?x3004 ?x1908) (<= (+ (+ (+ ?x420 (* 15.0 |v3:8|)) ?x420) (* 19.0 ?x608)) ?x2792))))
 (let ((?x3132 (* 16.0 |v11:0|)))
 (let ((?x416 (+ (+ (+ (* 12.0 (rval2 |v6:5_st|)) (* 5.0 |v1:10|)) (* (- 11.0) |v9:2|)) ?x3132)))
 (let ((?x1339 (+ (+ (+ (* 6.0 (rval2 |v10:1_st|)) (* 3.0 ?x608)) (* 16.0 ?x608)) (* (- 18.0) |v7:4|))))
 (let ((?x2149 (+ (+ (+ (* 14.0 ?x2803) (* (- 17.0) ?x608)) (* (- 16.0) |v5:6|)) (* 5.0 (rval2 |v10:1_st|)))))
 (let ((?x2992 (- 12.0)))
 (let ((?x1144 (* 20.0 |v9:2|)))
 (let ((?x1974 (+ (+ (+ (* (- 16.0) |v11:0|) (* 6.0 (rval2 |v6:5_st|))) (* 6.0 |v5:6|)) ?x1144)))
 (let ((?x2846 (- 18.0)))
 (let ((?x1418 (+ (+ (* (- 1.0) (rval2 |v2:9_st|)) (* (- 19.0) |v7:4|)) (* 4.0 |v11:0|))))
 (let (($x1600 (and (<= (+ ?x1418 (* (- 2.0) |v9:2|)) ?x2846) (or (<= ?x1974 ?x2992) (<= ?x2149 13.0)))))
 (let ((?x1369 (+ (+ (* 8.0 ?x2803) (* (- 11.0) (rval2 |v4:7_st|))) (* (- 8.0) ?x608))))
 (let ((?x2542 (+ (+ (* (- 14.0) ?x2803) (* ?x2992 |v5:6|)) (* (- 10.0) (rval2 |v6:5_st|)))))
 (let (($x1230 (and (<= (+ ?x2542 (* (- 20.0) (rval2 |v10:1_st|))) 4.0) (<= (+ ?x1369 (* (- 11.0) |v5:6|)) 16.0))))
 (let ((?x1248 (- 19.0)))
 (let ((?x1324 (* 10.0 |v11:0|)))
 (let (($x1972 (<= (+ (+ (+ (* 8.0 |v3:8|) (* 11.0 (rval2 |v4:7_st|))) |v7:4|) ?x1324) ?x1248)))
 (let ((?x2171 (- 7.0)))
 (let ((?x2900 (+ (+ (+ (* ?x1908 |v7:4|) (* 7.0 |v1:10|)) (* ?x2792 |v1:10|)) (* 3.0 |v1:10|))))
 (let ((?x931 (+ (+ (+ (* (- 2.0) |v11:0|) (* 7.0 ?x2803)) (* 0.0 (rval2 |v10:1_st|))) (* (- 3.0) ?x608))))
 (let ((?x1118 (+ (+ (+ (* ?x2171 |v7:4|) (* 3.0 |v3:8|)) (* 18.0 |v3:8|)) (* ?x2846 (rval2 |v4:7_st|)))))
 (let ((?x577 (+ (+ (* 18.0 (rval2 |v2:9_st|)) (* 2.0 (rval2 |v2:9_st|))) (* (- 2.0) (rval2 |v10:1_st|)))))
 (let (($x3033 (and (<= (+ ?x577 (* 10.0 ?x2803)) 0.0) (or (<= ?x1118 10.0) (<= ?x931 16.0)))))
 (let (($x2047 (or (or $x3033 (and (and (<= ?x2900 ?x2171) $x1972) $x1230)) (or $x1600 (or (or (<= ?x1339 2.0) (<= ?x416 15.0)) $x627)))))
 (let ((?x2588 (- 4.0)))
 (let ((?x1938 (* ?x2588 |v5:6|)))
 (let ((?x1898 (rval2 |v4:7_st|)))
 (let ((?x2383 (* 5.0 ?x1898)))
 (let (($x1426 (<= (+ (+ (+ (* 17.0 |v11:0|) (* 15.0 (rval2 |v6:5_st|))) ?x2383) ?x1938) ?x2171)))
 (let ((?x570 (+ (+ (+ (* (- 8.0) (rval2 |v2:9_st|)) (* 9.0 |v7:4|)) (* ?x1908 |v1:10|)) (* ?x2588 ?x2803))))
 (let ((?x2938 (+ (+ (* 0.0 (rval2 |v10:1_st|)) (* 9.0 (rval2 |v6:5_st|))) (* (- 3.0) (rval2 |v6:5_st|)))))
 (let ((?x2231 (+ (+ (+ (* 11.0 |v3:8|) (* (- 13.0) ?x2803)) (* 15.0 ?x1898)) (* 5.0 |v3:8|))))
 (let (($x2263 (and (or (<= ?x2231 6.0) (<= (+ ?x2938 (* (- 15.0) ?x2803)) 17.0)) (<= ?x570 6.0))))
 (let ((?x1580 (- 16.0)))
 (let ((?x371 (+ (+ (+ (* 18.0 |v1:10|) (* 4.0 ?x1898)) (* 5.0 ?x608)) (* ?x1908 ?x1898))))
 (let ((?x2547 (+ (+ (+ (* (- 2.0) |v7:4|) (* 4.0 (rval2 |v2:9_st|))) (* 11.0 ?x608)) (* ?x1248 ?x1898))))
 (let ((?x2399 (+ (+ (* 2.0 (rval2 |v6:5_st|)) (* (- 8.0) |v5:6|)) (* (- 2.0) ?x2803))))
 (let ((?x1236 (- 11.0)))
 (let ((?x451 (rval2 |v6:5_st|)))
 (let ((?x2061 (* 9.0 ?x451)))
 (let ((?x927 (+ (+ (* ?x1580 (rval2 |v2:9_st|)) (* (- 17.0) (rval2 |v10:1_st|))) (* ?x2792 ?x451))))
 (let (($x2146 (or (<= (+ ?x927 ?x2061) ?x1236) (<= (+ ?x2399 (* (- 10.0) |v11:0|)) 2.0))))
 (let (($x1643 (and (and (and $x2146 (and (<= ?x2547 4.0) (<= ?x371 ?x1580))) $x2263) $x1426)))
 (let (($x2737 (<= (+ (+ (+ (* (- 8.0) |v11:0|) ?x2383) (* 12.0 |v3:8|)) (* ?x2792 |v9:2|)) ?x2588)))
 (let (($x1423 (not (= |v0:11_st| (RMk1 val!3143)))))
 (let (($x937 (not (= |v2:9_st| (RMk1 val!3142)))))
 (let (($x1277 (not (= |v4:7_st| (RMk1 val!3141)))))
 (let (($x1151 (not (= |v6:5_st| (RMk1 val!3140)))))
 (let (($x1011 (not (= |v8:3_st| (RMk1 val!3139)))))
 (let (($x439 (not (= |v10:1_st| (RMk1 val!3138)))))
 (and $x439 $x1011 $x1151 $x1277 $x937 $x1423 (or $x2737 (and $x1643 $x2047)))))))))))))))))))))))))))))))))))))))))))))))))))))))))))))))
 )
 )
 )
 )
 )
 )
 )
 )
 )
 )
 )
 )
(check-sat)
